
n_res = 6;
rcap = [74, 72, 74, 68, 1460, 1398];
rtype = [1, 1, 1, 1, 2, 2];
n_tasks = 100;
modes =  [{1, 2, 3}, {4, 5, 6}, {7, 8, 9}, {10, 11, 12}, {13, 14, 15}, {16, 17, 18}, {19, 20, 21}, {22, 23, 24}, {25, 26, 27}, {28, 29, 30}, {31, 32, 33}, {34, 35, 36}, {37, 38, 39}, {40, 41, 42}, {43, 44, 45}, {46, 47, 48}, {49, 50, 51}, {52, 53, 54}, {55, 56, 57}, {58, 59, 60}, {61, 62, 63}, {64, 65, 66}, {67, 68, 69}, {70, 71, 72}, {73, 74, 75}, {76, 77, 78}, {79, 80, 81}, {82, 83, 84}, {85, 86, 87}, {88, 89, 90}, {91, 92, 93}, {94, 95, 96}, {97, 98, 99}, {100, 101, 102}, {103, 104, 105}, {106, 107, 108}, {109, 110, 111}, {112, 113, 114}, {115, 116, 117}, {118, 119, 120}, {121, 122, 123}, {124, 125, 126}, {127, 128, 129}, {130, 131, 132}, {133, 134, 135}, {136, 137, 138}, {139, 140, 141}, {142, 143, 144}, {145, 146, 147}, {148, 149, 150}, {151, 152, 153}, {154, 155, 156}, {157, 158, 159}, {160, 161, 162}, {163, 164, 165}, {166, 167, 168}, {169, 170, 171}, {172, 173, 174}, {175, 176, 177}, {178, 179, 180}, {181, 182, 183}, {184, 185, 186}, {187, 188, 189}, {190, 191, 192}, {193, 194, 195}, {196, 197, 198}, {199, 200, 201}, {202, 203, 204}, {205, 206, 207}, {208, 209, 210}, {211, 212, 213}, {214, 215, 216}, {217, 218, 219}, {220, 221, 222}, {223, 224, 225}, {226, 227, 228}, {229, 230, 231}, {232, 233, 234}, {235, 236, 237}, {238, 239, 240}, {241, 242, 243}, {244, 245, 246}, {247, 248, 249}, {250, 251, 252}, {253, 254, 255}, {256, 257, 258}, {259, 260, 261}, {262, 263, 264}, {265, 266, 267}, {268, 269, 270}, {271, 272, 273}, {274, 275, 276}, {277, 278, 279}, {280, 281, 282}, {283, 284, 285}, {286, 287, 288}, {289, 290, 291}, {292, 293, 294}, {295, 296, 297}, {298, 299, 300}];
succ =  [{100, 99, 77, 76, 75, 72, 71, 69, 63, 61, 60, 59, 56, 53, 52, 51, 49, 48, 47, 46, 45, 43, 36, 32, 29}, {99, 74, 72, 71, 70, 64, 63, 62, 53, 49, 48, 47, 44, 42, 40, 33, 32, 10}, {99, 76, 74, 71, 63, 49, 47, 41, 39, 33, 24, 10}, {100, 94, 75, 74, 72, 71, 70, 69, 64, 62, 60, 59, 57, 56, 55, 53, 52, 50, 47, 46, 45, 33, 32}, {100, 93, 76, 72, 69, 67, 63, 59, 58, 57, 55, 54, 53, 52, 50, 49, 37, 34, 33}, {99, 96, 95, 93, 92, 72, 71, 62, 57, 56, 55, 54, 52, 48, 45, 35, 32}, {100, 99, 94, 90, 76, 72, 71, 64, 63, 55, 54, 52, 50, 38, 32}, {99, 96, 92, 74, 73, 71, 67, 63, 61, 54, 34, 30}, {99, 96, 95, 75, 72, 69, 67, 63, 61, 60, 58, 57, 55, 52, 47, 45, 43}, {100, 96, 94, 93, 92, 91, 89, 75, 73, 69, 67, 59, 57, 55, 52, 34}, {99, 97, 96, 93, 91, 90, 74, 71, 68, 58, 52, 51, 31}, {99, 98, 97, 96, 92, 91, 87, 74, 72, 71, 70, 69, 67, 61, 60, 58, 49, 45}, {100, 99, 95, 91, 68, 67, 64, 63, 58, 50, 30}, {98, 97, 96, 95, 94, 93, 92, 91, 90, 88, 74, 72, 71, 69, 67, 66, 59, 58, 57, 53, 47}, {99, 98, 96, 93, 92, 91, 90, 88, 75, 71, 68, 67, 66, 63, 57, 54, 53, 52, 47}, {98, 97, 96, 95, 92, 89, 87, 72, 69, 68, 67, 64, 63, 59, 49, 46, 45}, {100, 99, 98, 95, 92, 83, 73, 72, 69, 68, 67, 60, 58, 45, 36}, {99, 95, 90, 89, 88, 87, 86, 77, 76, 73, 72, 71, 70, 69, 68, 67, 65, 60, 56, 43}, {99, 97, 96, 95, 92, 72, 71, 70, 69, 68, 67, 66, 60, 56, 36}, {99, 98, 95, 92, 90, 88, 86, 85, 73, 70, 68, 67, 63, 58, 55, 43}, {98, 96, 95, 94, 91, 74, 70, 69, 67, 55, 53, 50, 45}, {99, 98, 97, 96, 95, 92, 91, 87, 84, 74, 72, 69, 68, 67, 60, 45}, {99, 94, 92, 90, 88, 85, 72, 71, 70, 68, 67, 63, 59, 52, 48, 47}, {97, 92, 91, 85, 73, 70, 68, 65, 62, 61, 58, 53, 45}, {100, 97, 94, 91, 90, 88, 86, 75, 69, 67, 63, 58, 54, 52}, {99, 98, 95, 94, 92, 88, 87, 86, 82, 69, 68, 63, 49, 43}, {100, 96, 91, 88, 86, 85, 84, 71, 70, 67, 60, 58, 57, 52, 48}, {99, 95, 93, 88, 87, 86, 84, 82, 75, 71, 69, 68, 66, 65}, {96, 95, 94, 93, 92, 90, 88, 86, 84, 66, 57, 54}, {93, 90, 89, 88, 86, 84, 70, 69, 57, 52, 48}, {94, 92, 88, 85, 83, 82, 67, 59, 57, 53, 47}, {98, 97, 88, 87, 86, 85, 83, 82, 68, 67, 66, 65, 58}, {98, 96, 95, 92, 91, 90, 89, 86, 85, 84, 83, 81, 73, 65}, {98, 95, 85, 83, 80, 68, 45}, {98, 94, 75, 74, 69, 68, 53}, {94, 93, 91, 90, 88, 87, 86, 85, 84, 82, 81, 65}, {97, 96, 95, 94, 91, 88, 85, 81, 79, 70, 65}, {96, 93, 91, 89, 86, 84, 82, 74, 66, 65}, {97, 92, 85, 83, 82, 79, 65, 59}, {96, 95, 92, 91, 86, 82, 79, 65}, {94, 89, 87, 86, 85, 84, 82, 79}, {93, 91, 85, 84, 81, 80, 66}, {93, 91, 84, 83, 80, 66}, {100, 84, 83, 82, 79, 65}, {90, 88, 86, 82, 66}, {93, 84, 83, 80, 73}, {89, 86, 79, 65}, {83, 82, 79, 65}, {85, 84, 79, 65}, {92, 83, 79, 65}, {84, 83, 82, 66}, {87, 81, 80, 79}, {89, 87, 84, 79}, {83, 81, 70}, {97, 87, 84}, {85, 82, 81}, {81, 65}, {89, 81}, {84, 81}, {82, 81}, {94, 86}, {83, 79}, {65}, {66}, {80}, {79}, {81}, {81}, {85}, {82}, {83}, {80}, {79}, {83}, {85}, {82}, {79}, {81}, {}, {}, {}, {}, {}, {}, {}, {}, {}, {}, {}, {}, {}, {}, {}, {}, {}, {}, {}, {}, {}, {}];
n_opt = 300;
dur = [6, 18, 19, 16, 19, 20, 9, 25, 27, 4, 18, 26, 2, 6, 8, 4, 24, 29, 20, 21, 28, 1, 19, 23, 8, 19, 24, 4, 9, 11, 3, 6, 26, 1, 15, 17, 10, 13, 29, 4, 5, 17, 14, 20, 29, 2, 3, 5, 1, 4, 28, 1, 9, 27, 16, 20, 21, 14, 17, 28, 2, 7, 13, 3, 11, 15, 17, 23, 24, 4, 11, 14, 5, 11, 28, 18, 28, 30, 3, 21, 27, 19, 20, 27, 3, 7, 16, 7, 13, 14, 1, 3, 7, 3, 4, 29, 7, 9, 16, 21, 27, 30, 8, 15, 23, 12, 20, 29, 17, 20, 30, 1, 3, 24, 6, 13, 30, 2, 8, 12, 4, 27, 30, 16, 20, 26, 18, 20, 21, 5, 10, 12, 5, 8, 17, 4, 19, 25, 2, 8, 9, 18, 19, 30, 4, 10, 14, 2, 16, 23, 9, 10, 24, 1, 13, 23, 1, 16, 24, 2, 15, 16, 5, 9, 21, 11, 14, 16, 10, 11, 16, 12, 17, 18, 1, 21, 27, 10, 21, 23, 1, 5, 16, 20, 21, 27, 2, 11, 17, 10, 20, 29, 2, 5, 25, 2, 19, 27, 2, 5, 9, 1, 21, 23, 10, 12, 21, 10, 19, 24, 6, 14, 23, 6, 12, 21, 9, 18, 23, 14, 26, 27, 12, 19, 27, 6, 23, 26, 10, 18, 28, 11, 13, 14, 5, 15, 26, 1, 21, 24, 14, 23, 24, 10, 11, 16, 1, 17, 26, 14, 21, 28, 17, 27, 30, 1, 14, 20, 8, 21, 28, 22, 29, 30, 5, 11, 18, 3, 7, 27, 9, 10, 12, 1, 4, 30, 8, 20, 21, 2, 15, 18, 4, 6, 19, 16, 20, 25, 3, 12, 15, 8, 16, 30, 4, 7, 11, 8, 12, 19];
rreq = [|2, 2, 2, 3, 2, 1, 4, 4, 4, 4, 2, 2, 4, 2, 2, 3, 2, 1, 2, 2, 2, 5, 5, 5, 1, 1, 1, 3, 3, 3, 5, 4, 4, 5, 5, 5, 1, 1, 1, 2, 1, 1, 3, 3, 3, 5, 5, 5, 4, 2, 2, 5, 5, 5, 5, 4, 4, 2, 2, 2, 5, 4, 3, 4, 3, 3, 4, 4, 4, 3, 3, 2, 5, 5, 5, 5, 5, 5, 4, 3, 3, 1, 1, 1, 4, 3, 3, 3, 3, 3, 5, 5, 5, 4, 4, 4, 5, 5, 5, 4, 3, 2, 3, 3, 3, 3, 1, 1, 2, 1, 1, 5, 4, 3, 2, 2, 2, 5, 4, 3, 5, 4, 3, 2, 1, 1, 3, 3, 3, 1, 1, 1, 2, 2, 1, 4, 4, 4, 3, 3, 1, 4, 4, 3, 3, 3, 2, 1, 1, 1, 4, 3, 2, 4, 3, 3, 3, 3, 2, 4, 4, 4, 3, 3, 3, 1, 1, 1, 4, 3, 3, 5, 4, 3, 5, 5, 5, 3, 2, 2, 2, 1, 1, 5, 4, 2, 5, 4, 2, 2, 2, 1, 3, 2, 2, 2, 1, 1, 1, 1, 1, 3, 3, 2, 4, 3, 2, 3, 2, 2, 3, 3, 3, 2, 1, 1, 4, 3, 3, 4, 2, 2, 4, 3, 3, 4, 3, 1, 1, 1, 1, 4, 3, 3, 2, 2, 2, 3, 3, 2, 4, 3, 2, 1, 1, 1, 4, 3, 3, 3, 3, 3, 5, 3, 2, 5, 4, 4, 5, 2, 2, 3, 1, 1, 1, 1, 1, 3, 2, 1, 4, 3, 3, 5, 5, 5, 1, 1, 1, 5, 4, 3, 4, 3, 3, 4, 2, 2, 4, 4, 4, 3, 3, 2, 5, 4, 4, 4, 3, 1
 |3, 3, 3, 5, 5, 5, 4, 4, 4, 4, 3, 3, 3, 1, 1, 3, 3, 2, 1, 1, 1, 4, 4, 3, 2, 1, 1, 5, 3, 1, 3, 2, 2, 4, 3, 2, 4, 2, 2, 2, 2, 1, 2, 2, 1, 2, 2, 2, 4, 3, 3, 5, 4, 4, 3, 2, 1, 4, 4, 4, 4, 4, 3, 3, 2, 2, 2, 2, 2, 4, 4, 3, 3, 3, 3, 5, 4, 4, 3, 2, 2, 5, 2, 2, 5, 2, 2, 4, 4, 4, 3, 3, 3, 5, 3, 2, 3, 3, 2, 3, 3, 2, 1, 1, 1, 3, 3, 2, 5, 4, 3, 2, 2, 2, 4, 3, 3, 1, 1, 1, 2, 2, 1, 4, 3, 1, 2, 1, 1, 4, 2, 2, 1, 1, 1, 4, 4, 4, 1, 1, 1, 5, 3, 3, 4, 4, 4, 5, 4, 3, 1, 1, 1, 3, 2, 2, 4, 3, 3, 4, 3, 2, 3, 3, 3, 2, 2, 2, 3, 2, 1, 2, 2, 2, 5, 5, 5, 4, 4, 4, 5, 4, 2, 3, 2, 2, 4, 4, 3, 4, 2, 2, 5, 4, 4, 4, 3, 3, 3, 2, 2, 3, 3, 3, 5, 3, 2, 3, 2, 2, 4, 4, 4, 1, 1, 1, 4, 3, 3, 1, 1, 1, 3, 3, 1, 2, 1, 1, 2, 2, 2, 2, 1, 1, 4, 2, 1, 3, 2, 1, 5, 4, 3, 3, 2, 2, 3, 2, 2, 4, 2, 2, 3, 3, 1, 4, 3, 3, 5, 4, 4, 4, 3, 2, 5, 3, 3, 3, 1, 1, 2, 1, 1, 4, 3, 2, 2, 2, 2, 4, 4, 4, 4, 3, 2, 2, 1, 1, 3, 3, 3, 4, 4, 2, 5, 4, 4, 4, 2, 2
 |1, 1, 1, 3, 1, 1, 5, 4, 4, 5, 4, 2, 3, 2, 2, 5, 4, 2, 2, 2, 2, 2, 2, 2, 2, 2, 2, 3, 3, 1, 4, 3, 3, 2, 2, 2, 3, 3, 3, 4, 4, 4, 5, 4, 4, 5, 4, 4, 4, 3, 3, 3, 2, 1, 2, 1, 1, 3, 3, 3, 4, 4, 4, 5, 4, 4, 1, 1, 1, 5, 2, 2, 3, 3, 3, 4, 4, 3, 1, 1, 1, 3, 3, 3, 4, 3, 1, 5, 4, 4, 2, 2, 2, 2, 2, 2, 2, 2, 2, 4, 2, 2, 3, 1, 1, 3, 3, 2, 3, 2, 2, 4, 4, 4, 2, 1, 1, 4, 3, 2, 3, 3, 3, 3, 3, 3, 4, 4, 4, 5, 4, 3, 2, 2, 2, 4, 3, 3, 2, 2, 2, 5, 4, 4, 2, 2, 2, 4, 3, 1, 2, 2, 2, 5, 4, 3, 3, 3, 2, 3, 2, 2, 5, 5, 5, 3, 3, 2, 5, 3, 3, 5, 3, 3, 2, 1, 1, 3, 2, 2, 1, 1, 1, 1, 1, 1, 5, 5, 5, 3, 2, 1, 3, 2, 2, 4, 3, 3, 4, 2, 2, 4, 2, 2, 5, 5, 5, 4, 4, 4, 4, 3, 1, 5, 5, 5, 5, 4, 3, 3, 3, 3, 3, 2, 1, 5, 4, 3, 3, 3, 3, 4, 3, 3, 5, 4, 3, 5, 5, 5, 2, 1, 1, 3, 2, 2, 3, 2, 2, 2, 2, 2, 3, 3, 3, 3, 3, 3, 5, 5, 5, 3, 2, 1, 3, 2, 2, 1, 1, 1, 4, 4, 4, 4, 3, 2, 4, 4, 3, 2, 2, 2, 5, 4, 4, 4, 4, 3, 4, 4, 4, 4, 4, 4, 3, 2, 2, 3, 3, 2
 |4, 4, 4, 4, 4, 4, 3, 3, 2, 5, 4, 4, 2, 2, 2, 4, 2, 2, 4, 3, 3, 1, 1, 1, 2, 1, 1, 3, 3, 1, 4, 3, 3, 4, 3, 2, 4, 3, 2, 4, 3, 2, 1, 1, 1, 4, 2, 2, 2, 2, 2, 1, 1, 1, 3, 2, 1, 2, 1, 1, 4, 3, 3, 3, 2, 2, 2, 1, 1, 4, 2, 1, 4, 3, 2, 4, 4, 3, 5, 5, 5, 5, 5, 5, 3, 2, 2, 4, 4, 4, 3, 3, 3, 1, 1, 1, 2, 2, 2, 2, 2, 1, 3, 3, 2, 5, 4, 4, 4, 3, 3, 5, 2, 1, 5, 3, 3, 4, 2, 2, 3, 2, 2, 5, 4, 3, 3, 3, 2, 4, 3, 2, 1, 1, 1, 3, 2, 2, 5, 4, 4, 3, 3, 3, 5, 4, 4, 3, 3, 2, 3, 3, 3, 4, 4, 4, 3, 1, 1, 4, 4, 4, 2, 1, 1, 4, 3, 3, 2, 2, 2, 4, 4, 4, 5, 3, 2, 2, 2, 2, 4, 2, 2, 4, 3, 3, 4, 3, 3, 3, 3, 3, 2, 2, 2, 4, 2, 1, 3, 2, 1, 4, 2, 2, 2, 2, 2, 2, 2, 2, 4, 4, 4, 4, 3, 2, 1, 1, 1, 1, 1, 1, 2, 2, 2, 4, 4, 4, 4, 4, 4, 2, 2, 2, 4, 3, 2, 4, 4, 2, 4, 2, 1, 3, 3, 1, 4, 3, 3, 4, 2, 1, 2, 2, 1, 3, 3, 2, 5, 5, 5, 3, 2, 2, 3, 3, 3, 2, 2, 2, 4, 4, 4, 3, 3, 3, 2, 2, 2, 4, 4, 2, 2, 1, 1, 4, 2, 1, 5, 4, 3, 5, 4, 4, 2, 1, 1, 1, 1, 1
 |20, 13, 12, 23, 20, 17, 29, 19, 10, 16, 14, 10, 23, 21, 21, 6, 4, 4, 6, 5, 5, 8, 7, 1, 19, 18, 16, 29, 26, 23, 12, 12, 4, 23, 21, 21, 18, 16, 15, 26, 24, 24, 19, 17, 14, 20, 19, 18, 23, 18, 18, 18, 15, 6, 18, 17, 14, 21, 15, 12, 14, 13, 7, 23, 17, 11, 26, 22, 15, 21, 18, 7, 11, 11, 11, 22, 17, 15, 27, 23, 16, 22, 19, 18, 6, 4, 3, 20, 16, 13, 11, 10, 6, 12, 9, 6, 23, 14, 13, 16, 14, 13, 13, 11, 9, 22, 14, 12, 10, 10, 10, 9, 9, 4, 23, 19, 14, 29, 25, 23, 27, 17, 14, 10, 8, 8, 27, 25, 22, 18, 11, 8, 9, 5, 1, 20, 17, 15, 19, 14, 11, 21, 21, 18, 24, 22, 16, 5, 4, 3, 24, 20, 14, 27, 26, 24, 28, 18, 18, 27, 23, 22, 27, 26, 24, 13, 9, 2, 24, 21, 16, 20, 14, 12, 24, 21, 21, 22, 21, 15, 20, 16, 14, 16, 13, 10, 6, 3, 2, 20, 13, 6, 24, 16, 16, 5, 5, 4, 19, 18, 8, 28, 24, 23, 26, 24, 23, 13, 7, 7, 28, 25, 24, 27, 25, 25, 20, 15, 3, 26, 26, 26, 17, 15, 12, 26, 20, 12, 3, 2, 2, 18, 17, 9, 17, 10, 6, 27, 16, 13, 14, 11, 10, 12, 10, 6, 27, 23, 19, 28, 20, 20, 9, 5, 2, 29, 25, 19, 30, 29, 27, 27, 27, 27, 11, 8, 7, 17, 17, 17, 21, 12, 7, 8, 8, 8, 20, 16, 11, 23, 19, 18, 23, 21, 20, 24, 20, 19, 12, 10, 9, 7, 6, 5, 24, 24, 22, 17, 14, 13
 |21, 20, 17, 26, 26, 24, 25, 14, 13, 25, 25, 24, 12, 12, 7, 9, 6, 6, 16, 14, 10, 23, 21, 13, 16, 14, 13, 26, 21, 17, 28, 27, 27, 15, 13, 13, 17, 13, 12, 28, 18, 14, 16, 15, 9, 17, 13, 12, 14, 12, 7, 22, 19, 17, 8, 5, 4, 24, 19, 10, 22, 20, 15, 21, 10, 6, 10, 8, 7, 10, 8, 6, 20, 20, 20, 23, 12, 11, 22, 13, 6, 18, 17, 9, 22, 8, 3, 11, 10, 10, 25, 21, 15, 19, 13, 8, 17, 10, 6, 30, 29, 29, 27, 17, 14, 22, 19, 17, 23, 19, 19, 22, 18, 5, 25, 20, 12, 29, 21, 15, 6, 4, 1, 16, 13, 10, 15, 15, 15, 10, 10, 10, 9, 5, 5, 12, 12, 11, 25, 22, 20, 24, 23, 21, 24, 22, 20, 3, 2, 2, 5, 5, 3, 26, 22, 16, 19, 14, 9, 15, 13, 13, 7, 7, 3, 18, 18, 18, 25, 15, 13, 20, 16, 13, 26, 21, 10, 21, 19, 19, 3, 2, 2, 23, 20, 13, 20, 16, 15, 14, 12, 12, 26, 25, 23, 21, 13, 10, 22, 13, 6, 16, 10, 5, 10, 7, 6, 19, 16, 15, 21, 20, 19, 5, 3, 3, 16, 10, 8, 28, 24, 23, 18, 13, 7, 30, 30, 30, 23, 22, 21, 22, 20, 15, 18, 18, 18, 13, 13, 11, 12, 12, 11, 25, 17, 11, 23, 22, 16, 15, 10, 7, 13, 11, 7, 16, 15, 2, 20, 19, 15, 22, 17, 16, 22, 20, 18, 16, 12, 8, 13, 12, 12, 12, 11, 11, 12, 9, 5, 26, 20, 12, 26, 25, 21, 22, 18, 10, 30, 22, 21, 30, 26, 21, 15, 13, 4, 19, 18, 10|];